<number of tasks>
45

<cycle time>
111

<task times>
1 9
2 9
3 10
4 10
5 17
6 17
7 13
8 13
9 20
10 20
11 10
12 11
13 6
14 22
15 11
16 19
17 12
18 3
19 7
20 4
21 55
22 14
23 27
24 29
25 26
26 6
27 5
28 24
29 4
30 5
31 7
32 4
33 15
34 3
35 7
36 9
37 4
38 7
39 5
40 4
41 21
42 12
43 6
44 5
45 5

<precedence relations>
1,3
1,7
2,4
2,8
3,5
4,6
5,9
6,10
7,9
7,14
8,10
8,14
9,41
10,41
11,13
12,13
12,37
13,14
13,15
14,17
14,25
14,29
14,30
14,31
14,32
15,16
15,18
15,23
15,24
16,19
17,26
17,27
18,19
19,20
19,33
20,21
21,22
22,28
23,33
24,33
25,26
26,38
27,28
27,33
28,38
29,41
30,41
31,41
32,41
33,34
33,35
33,36
34,38
35,40
36,38
37,43
38,40
39,41
40,41
41,42
42,44
42,45

<setup times forward>
1,3:3
1,4:3
1,6:3
1,10:2
1,16:3
1,19:3
1,20:2
1,21:1
1,22:1
1,23:2
1,24:3
1,39:2
1,43:2
2,3:3
2,4:3
2,5:3
2,9:2
2,16:3
2,19:3
2,20:2
2,21:1
2,22:1
2,23:2
2,24:3
2,39:2
2,43:2
3,2:3
3,7:3
3,8:3
3,10:5
3,11:3
3,12:3
3,13:3
3,14:3
3,15:3
3,17:5
3,18:3
3,20:5
3,21:2
3,22:2
3,23:5
3,25:2
3,26:2
3,27:2
3,28:2
3,29:2
3,30:5
3,31:5
3,32:5
3,33:2
3,34:2
3,35:2
3,36:2
3,37:3
3,38:2
3,39:5
3,40:2
3,43:5
4,1:3
4,7:3
4,8:3
4,9:5
4,11:3
4,12:3
4,13:3
4,14:3
4,15:3
4,17:5
4,18:3
4,20:5
4,21:2
4,22:2
4,23:5
4,25:2
4,26:2
4,27:2
4,28:2
4,29:2
4,30:5
4,31:5
4,32:5
4,33:2
4,34:2
4,35:2
4,36:2
4,37:3
4,38:2
4,39:5
4,40:2
4,43:5
5,2:3
5,7:3
5,8:3
5,9:5
5,10:5
5,11:3
5,12:3
5,13:3
5,14:3
5,15:3
5,17:5
5,18:3
5,20:5
5,21:2
5,22:2
5,23:5
5,25:2
5,26:2
5,27:2
5,28:2
5,29:2
5,30:5
5,31:5
5,32:5
5,33:2
5,34:2
5,35:2
5,36:2
5,37:3
5,38:2
5,39:5
5,40:2
5,43:5
6,1:3
6,7:3
6,8:3
6,9:5
6,10:5
6,11:3
6,12:3
6,13:3
6,14:3
6,15:3
6,17:5
6,18:3
6,20:5
6,21:2
6,22:2
6,23:5
6,25:2
6,26:2
6,27:2
6,28:2
6,29:2
6,30:5
6,31:5
6,32:5
6,33:2
6,34:2
6,35:2
6,36:2
6,37:3
6,38:2
6,39:5
6,40:2
6,43:5
7,3:3
7,4:3
7,5:3
7,6:3
7,9:2
7,10:2
7,16:3
7,19:3
7,20:2
7,21:1
7,22:1
7,23:2
7,24:3
7,39:2
7,43:2
8,3:3
8,4:3
8,5:3
8,6:3
8,9:2
8,10:2
8,16:3
8,19:3
8,20:2
8,21:1
8,22:1
8,23:2
8,24:3
8,39:2
8,43:2
9,2:2
9,4:5
9,6:5
9,8:2
9,11:2
9,12:2
9,13:2
9,14:2
9,15:2
9,16:5
9,18:2
9,19:5
9,21:3
9,22:3
9,24:5
9,25:3
9,26:3
9,27:3
9,28:3
9,29:3
9,33:3
9,34:3
9,35:3
9,36:3
9,37:2
9,38:3
9,40:3
9,41:3
10,1:2
10,3:5
10,5:5
10,7:2
10,11:2
10,12:2
10,13:2
10,14:2
10,15:2
10,16:5
10,18:2
10,19:5
10,21:3
10,22:3
10,24:5
10,25:3
10,26:3
10,27:3
10,28:3
10,29:3
10,33:3
10,34:3
10,35:3
10,36:3
10,37:2
10,38:3
10,40:3
10,41:3
11,3:3
11,4:3
11,5:3
11,6:3
11,9:2
11,10:2
11,39:2
11,43:2
12,3:3
12,4:3
12,5:3
12,6:3
12,9:2
12,10:2
12,39:2
13,3:3
13,4:3
13,5:3
13,6:3
13,9:2
13,10:2
13,39:2
13,43:2
14,3:3
14,4:3
14,5:3
14,6:3
14,9:2
14,10:2
14,16:3
14,17:2
14,19:3
14,20:2
14,21:1
14,22:1
14,23:2
14,24:3
14,25:1
14,29:1
14,30:2
14,31:2
14,32:2
14,39:2
14,43:2
15,3:3
15,4:3
15,5:3
15,6:3
15,9:2
15,10:2
15,16:3
15,17:2
15,23:2
15,24:3
15,25:1
15,26:1
15,27:1
15,29:1
15,30:2
15,31:2
15,32:2
15,39:2
15,43:2
16,1:3
16,2:3
16,7:3
16,8:3
16,9:5
16,10:5
16,14:3
16,17:5
16,18:3
16,23:5
16,25:2
16,26:2
16,27:2
16,29:2
16,30:5
16,31:5
16,32:5
16,37:3
16,39:5
16,43:5
17,3:5
17,4:5
17,5:5
17,6:5
17,15:2
17,16:5
17,18:2
17,19:5
17,21:3
17,22:3
17,24:5
17,25:3
17,26:3
17,27:3
17,29:3
17,37:2
18,3:3
18,4:3
18,5:3
18,6:3
18,9:2
18,10:2
18,16:3
18,17:2
18,19:3
18,23:2
18,24:3
18,25:1
18,26:1
18,27:1
18,29:1
18,30:2
18,31:2
18,32:2
18,39:2
18,43:2
19,1:3
19,2:3
19,7:3
19,8:3
19,9:5
19,10:5
19,14:3
19,17:5
19,20:5
19,23:5
19,25:2
19,26:2
19,27:2
19,29:2
19,30:5
19,31:5
19,32:5
19,33:2
19,37:3
19,39:5
19,43:5
20,1:2
20,2:2
20,3:5
20,4:5
20,5:5
20,6:5
20,7:2
20,8:2
20,14:2
20,21:3
20,24:5
20,25:3
20,26:3
20,27:3
20,29:3
20,33:3
20,34:3
20,35:3
20,36:3
20,37:2
21,1:1
21,2:1
21,3:2
21,4:2
21,5:2
21,6:2
21,7:1
21,8:1
21,9:3
21,10:3
21,14:1
21,17:3
21,23:3
21,24:2
21,30:3
21,31:3
21,32:3
21,37:1
21,39:3
21,43:3
22,1:1
22,2:1
22,3:2
22,4:2
22,5:2
22,6:2
22,7:1
22,8:1
22,9:3
22,10:3
22,14:1
22,17:3
22,23:3
22,24:2
22,30:3
22,31:3
22,32:3
22,37:1
22,39:3
22,43:3
23,1:2
23,2:2
23,3:5
23,4:5
23,5:5
23,6:5
23,7:2
23,8:2
23,14:2
23,16:5
23,18:2
23,19:5
23,21:3
23,22:3
23,24:5
23,25:3
23,26:3
23,27:3
23,28:3
23,29:3
23,33:3
23,37:2
24,1:3
24,2:3
24,7:3
24,8:3
24,9:5
24,10:5
24,14:3
24,17:5
24,18:3
24,20:5
24,21:2
24,22:2
24,23:5
24,25:2
24,26:2
24,27:2
24,28:2
24,29:2
24,30:5
24,31:5
24,32:5
24,33:2
24,37:3
24,39:5
24,43:5
25,3:2
25,4:2
25,5:2
25,6:2
25,9:3
25,10:3
25,15:1
25,16:2
25,17:3
25,18:1
25,19:2
25,20:3
25,23:3
25,24:2
25,30:3
25,31:3
25,32:3
25,37:1
25,39:3
25,43:3
26,3:2
26,4:2
26,5:2
26,6:2
26,9:3
26,10:3
26,15:1
26,16:2
26,18:1
26,19:2
26,20:3
26,23:3
26,24:2
26,30:3
26,31:3
26,32:3
26,37:1
26,39:3
26,43:3
27,3:2
27,4:2
27,5:2
27,6:2
27,9:3
27,10:3
27,15:1
27,16:2
27,18:1
27,19:2
27,20:3
27,23:3
27,24:2
27,30:3
27,31:3
27,32:3
27,37:1
27,39:3
27,43:3
28,3:2
28,4:2
28,5:2
28,6:2
28,9:3
28,10:3
28,23:3
28,24:2
28,30:3
28,31:3
28,32:3
28,37:1
28,39:3
28,43:3
29,3:2
29,4:2
29,5:2
29,6:2
29,9:3
29,10:3
29,15:1
29,16:2
29,17:3
29,18:1
29,19:2
29,20:3
29,23:3
29,24:2
29,30:3
29,31:3
29,32:3
29,37:1
29,39:3
29,43:3
30,3:5
30,4:5
30,5:5
30,6:5
30,15:2
30,16:5
30,18:2
30,19:5
30,21:3
30,22:3
30,24:5
30,25:3
30,26:3
30,27:3
30,28:3
30,29:3
30,33:3
30,34:3
30,35:3
30,36:3
30,37:2
30,38:3
30,40:3
30,41:3
31,3:5
31,4:5
31,5:5
31,6:5
31,15:2
31,16:5
31,18:2
31,19:5
31,21:3
31,22:3
31,24:5
31,25:3
31,26:3
31,27:3
31,28:3
31,29:3
31,33:3
31,34:3
31,35:3
31,36:3
31,37:2
31,38:3
31,40:3
31,41:3
32,3:5
32,4:5
32,5:5
32,6:5
32,15:2
32,16:5
32,18:2
32,19:5
32,21:3
32,22:3
32,24:5
32,25:3
32,26:3
32,27:3
32,28:3
32,29:3
32,33:3
32,34:3
32,35:3
32,36:3
32,37:2
32,38:3
32,40:3
32,41:3
33,3:2
33,4:2
33,5:2
33,6:2
33,9:3
33,10:3
33,20:3
33,30:3
33,31:3
33,32:3
33,37:1
33,39:3
33,43:3
34,3:2
34,4:2
34,5:2
34,6:2
34,9:3
34,10:3
34,20:3
34,30:3
34,31:3
34,32:3
34,37:1
34,39:3
34,43:3
35,3:2
35,4:2
35,5:2
35,6:2
35,9:3
35,10:3
35,20:3
35,30:3
35,31:3
35,32:3
35,37:1
35,39:3
35,43:3
36,3:2
36,4:2
36,5:2
36,6:2
36,9:3
36,10:3
36,20:3
36,30:3
36,31:3
36,32:3
36,37:1
36,39:3
36,43:3
37,3:3
37,4:3
37,5:3
37,6:3
37,9:2
37,10:2
37,16:3
37,17:2
37,19:3
37,20:2
37,21:1
37,22:1
37,23:2
37,24:3
37,25:1
37,26:1
37,27:1
37,28:1
37,29:1
37,30:2
37,31:2
37,32:2
37,33:1
37,34:1
37,35:1
37,36:1
37,38:1
37,39:2
37,40:1
37,41:1
37,42:1
37,43:2
37,44:1
37,45:1
38,3:2
38,4:2
38,5:2
38,6:2
38,9:3
38,10:3
38,30:3
38,31:3
38,32:3
38,37:1
38,39:3
38,43:3
39,1:2
39,2:2
39,3:5
39,4:5
39,5:5
39,6:5
39,7:2
39,8:2
39,11:2
39,12:2
39,13:2
39,14:2
39,15:2
39,16:5
39,18:2
39,19:5
39,21:3
39,22:3
39,24:5
39,25:3
39,26:3
39,27:3
39,28:3
39,29:3
39,33:3
39,34:3
39,35:3
39,36:3
39,37:2
39,38:3
39,40:3
39,41:3
40,3:2
40,4:2
40,5:2
40,6:2
40,9:3
40,10:3
40,30:3
40,31:3
40,32:3
40,37:1
40,39:3
40,43:3
41,37:1
41,43:3
42,37:1
42,43:3
43,1:2
43,2:2
43,3:5
43,4:5
43,5:5
43,6:5
43,7:2
43,8:2
43,11:2
43,13:2
43,14:2
43,15:2
43,16:5
43,18:2
43,19:5
43,21:3
43,22:3
43,24:5
43,25:3
43,26:3
43,27:3
43,28:3
43,29:3
43,33:3
43,34:3
43,35:3
43,36:3
43,38:3
43,40:3
43,41:3
43,42:3
43,44:3
43,45:3
44,37:1
44,43:3
45,37:1
45,43:3

<setup times backward>
1,10:2
1,20:2
1,23:2
1,39:2
1,43:2
2,9:2
2,20:2
2,23:2
2,39:2
2,43:2
3,1:3
3,2:3
3,7:3
3,8:3
3,10:5
3,11:3
3,12:3
3,13:3
3,14:3
3,15:3
3,17:5
3,18:3
3,20:5
3,21:2
3,22:2
3,23:5
3,25:2
3,26:2
3,27:2
3,28:2
3,29:2
3,30:5
3,31:5
3,32:5
3,33:2
3,34:2
3,35:2
3,36:2
3,37:3
3,38:2
3,39:5
3,40:2
3,43:5
4,1:3
4,2:3
4,7:3
4,8:3
4,9:5
4,11:3
4,12:3
4,13:3
4,14:3
4,15:3
4,17:5
4,18:3
4,20:5
4,21:2
4,22:2
4,23:5
4,25:2
4,26:2
4,27:2
4,28:2
4,29:2
4,30:5
4,31:5
4,32:5
4,33:2
4,34:2
4,35:2
4,36:2
4,37:3
4,38:2
4,39:5
4,40:2
4,43:5
5,1:3
5,2:3
5,7:3
5,8:3
5,10:5
5,11:3
5,12:3
5,13:3
5,14:3
5,15:3
5,17:5
5,18:3
5,20:5
5,21:2
5,22:2
5,23:5
5,25:2
5,26:2
5,27:2
5,28:2
5,29:2
5,30:5
5,31:5
5,32:5
5,33:2
5,34:2
5,35:2
5,36:2
5,37:3
5,38:2
5,39:5
5,40:2
5,43:5
6,1:3
6,2:3
6,7:3
6,8:3
6,9:5
6,11:3
6,12:3
6,13:3
6,14:3
6,15:3
6,17:5
6,18:3
6,20:5
6,21:2
6,22:2
6,23:5
6,25:2
6,26:2
6,27:2
6,28:2
6,29:2
6,30:5
6,31:5
6,32:5
6,33:2
6,34:2
6,35:2
6,36:2
6,37:3
6,38:2
6,39:5
6,40:2
6,43:5
7,10:2
7,20:2
7,23:2
7,39:2
7,43:2
8,9:2
8,20:2
8,23:2
8,39:2
8,43:2
11,9:2
11,10:2
11,39:2
11,43:2
12,9:2
12,10:2
12,39:2
13,9:2
13,10:2
13,39:2
13,43:2
14,9:2
14,10:2
14,20:2
14,23:2
14,39:2
14,43:2
15,9:2
15,10:2
15,17:2
15,30:2
15,31:2
15,32:2
15,39:2
15,43:2
16,1:3
16,2:3
16,7:3
16,8:3
16,9:5
16,10:5
16,11:3
16,12:3
16,13:3
16,14:3
16,15:3
16,17:5
16,18:3
16,23:5
16,25:2
16,26:2
16,27:2
16,29:2
16,30:5
16,31:5
16,32:5
16,37:3
16,39:5
16,43:5
18,9:2
18,10:2
18,17:2
18,23:2
18,30:2
18,31:2
18,32:2
18,39:2
18,43:2
19,1:3
19,2:3
19,7:3
19,8:3
19,9:5
19,10:5
19,11:3
19,12:3
19,13:3
19,14:3
19,15:3
19,17:5
19,18:3
19,23:5
19,25:2
19,26:2
19,27:2
19,29:2
19,30:5
19,31:5
19,32:5
19,37:3
19,39:5
19,43:5
21,1:1
21,2:1
21,7:1
21,8:1
21,9:3
21,10:3
21,11:1
21,12:1
21,13:1
21,14:1
21,15:1
21,17:3
21,18:1
21,20:3
21,23:3
21,30:3
21,31:3
21,32:3
21,37:1
21,39:3
21,43:3
22,1:1
22,2:1
22,7:1
22,8:1
22,9:3
22,10:3
22,11:1
22,12:1
22,13:1
22,14:1
22,15:1
22,17:3
22,18:1
22,20:3
22,23:3
22,30:3
22,31:3
22,32:3
22,37:1
22,39:3
22,43:3
24,1:3
24,2:3
24,7:3
24,8:3
24,9:5
24,10:5
24,11:3
24,12:3
24,13:3
24,14:3
24,15:3
24,17:5
24,18:3
24,20:5
24,21:2
24,22:2
24,23:5
24,25:2
24,26:2
24,27:2
24,28:2
24,29:2
24,30:5
24,31:5
24,32:5
24,37:3
24,39:5
24,43:5
25,1:1
25,2:1
25,7:1
25,8:1
25,9:3
25,10:3
25,11:1
25,12:1
25,13:1
25,14:1
25,15:1
25,17:3
25,18:1
25,20:3
25,23:3
25,30:3
25,31:3
25,32:3
25,37:1
25,39:3
25,43:3
26,1:1
26,2:1
26,7:1
26,8:1
26,9:3
26,10:3
26,11:1
26,12:1
26,13:1
26,14:1
26,15:1
26,17:3
26,18:1
26,20:3
26,23:3
26,30:3
26,31:3
26,32:3
26,37:1
26,39:3
26,43:3
27,1:1
27,2:1
27,7:1
27,8:1
27,9:3
27,10:3
27,11:1
27,12:1
27,13:1
27,14:1
27,15:1
27,17:3
27,18:1
27,20:3
27,23:3
27,30:3
27,31:3
27,32:3
27,37:1
27,39:3
27,43:3
28,1:1
28,2:1
28,7:1
28,8:1
28,9:3
28,10:3
28,11:1
28,12:1
28,13:1
28,14:1
28,15:1
28,17:3
28,18:1
28,20:3
28,23:3
28,30:3
28,31:3
28,32:3
28,37:1
28,39:3
28,43:3
29,1:1
29,2:1
29,7:1
29,8:1
29,9:3
29,10:3
29,11:1
29,12:1
29,13:1
29,14:1
29,15:1
29,17:3
29,18:1
29,20:3
29,23:3
29,30:3
29,31:3
29,32:3
29,37:1
29,39:3
29,43:3
33,1:1
33,2:1
33,7:1
33,8:1
33,9:3
33,10:3
33,11:1
33,12:1
33,13:1
33,14:1
33,15:1
33,17:3
33,18:1
33,20:3
33,23:3
33,30:3
33,31:3
33,32:3
33,37:1
33,39:3
33,43:3
34,1:1
34,2:1
34,7:1
34,8:1
34,9:3
34,10:3
34,11:1
34,12:1
34,13:1
34,14:1
34,15:1
34,17:3
34,18:1
34,20:3
34,23:3
34,30:3
34,31:3
34,32:3
34,37:1
34,39:3
34,43:3
35,1:1
35,2:1
35,7:1
35,8:1
35,9:3
35,10:3
35,11:1
35,12:1
35,13:1
35,14:1
35,15:1
35,17:3
35,18:1
35,20:3
35,23:3
35,30:3
35,31:3
35,32:3
35,37:1
35,39:3
35,43:3
36,1:1
36,2:1
36,7:1
36,8:1
36,9:3
36,10:3
36,11:1
36,12:1
36,13:1
36,14:1
36,15:1
36,17:3
36,18:1
36,20:3
36,23:3
36,30:3
36,31:3
36,32:3
36,37:1
36,39:3
36,43:3
37,9:2
37,10:2
37,17:2
37,20:2
37,23:2
37,30:2
37,31:2
37,32:2
37,39:2
38,1:1
38,2:1
38,7:1
38,8:1
38,9:3
38,10:3
38,11:1
38,12:1
38,13:1
38,14:1
38,15:1
38,17:3
38,18:1
38,20:3
38,23:3
38,30:3
38,31:3
38,32:3
38,37:1
38,39:3
38,43:3
40,1:1
40,2:1
40,7:1
40,8:1
40,9:3
40,10:3
40,11:1
40,12:1
40,13:1
40,14:1
40,15:1
40,17:3
40,18:1
40,20:3
40,23:3
40,30:3
40,31:3
40,32:3
40,37:1
40,39:3
40,43:3
41,1:1
41,2:1
41,7:1
41,8:1
41,9:3
41,10:3
41,11:1
41,12:1
41,13:1
41,14:1
41,15:1
41,17:3
41,18:1
41,20:3
41,23:3
41,30:3
41,31:3
41,32:3
41,37:1
41,39:3
41,43:3
42,1:1
42,2:1
42,7:1
42,8:1
42,9:3
42,10:3
42,11:1
42,12:1
42,13:1
42,14:1
42,15:1
42,17:3
42,18:1
42,20:3
42,23:3
42,30:3
42,31:3
42,32:3
42,37:1
42,39:3
42,43:3
44,1:1
44,2:1
44,7:1
44,8:1
44,9:3
44,10:3
44,11:1
44,12:1
44,13:1
44,14:1
44,15:1
44,17:3
44,18:1
44,20:3
44,23:3
44,30:3
44,31:3
44,32:3
44,37:1
44,39:3
44,43:3
45,1:1
45,2:1
45,7:1
45,8:1
45,9:3
45,10:3
45,11:1
45,12:1
45,13:1
45,14:1
45,15:1
45,17:3
45,18:1
45,20:3
45,23:3
45,30:3
45,31:3
45,32:3
45,37:1
45,39:3
45,43:3

<end>

<optimal SALBP-1 value>
5


<rand seed>
467321153

<Lower Bounds>
Lm1=5
Lms1=5
Lm2=0
Lm3=1
Lm4=5
Best=5

<Optimal Stations (Iterations: 10)>
6
